c Reduced graph for p21 generated by Cyril Grelier
p edge 37 149
e 1 4
e 1 5
e 1 6
e 1 14
e 1 17
e 1 20
e 1 23
e 1 25
e 1 26
e 1 34
e 2 3
e 2 5
e 2 8
e 2 12
e 2 19
e 2 21
e 2 27
e 2 28
e 3 7
e 3 8
e 3 16
e 3 19
e 3 21
e 3 25
e 4 14
e 4 20
e 4 31
e 4 34
e 5 6
e 5 12
e 5 17
e 5 23
e 5 25
e 5 26
e 5 27
e 5 28
e 6 8
e 6 9
e 6 17
e 6 18
e 6 23
e 6 25
e 6 26
e 7 16
e 7 25
e 7 28
e 7 32
e 7 33
e 7 37
e 8 9
e 8 18
e 8 19
e 8 21
e 9 11
e 9 12
e 9 13
e 9 18
e 9 29
e 9 34
e 10 11
e 10 17
e 10 20
e 10 22
e 10 35
e 11 12
e 11 13
e 11 17
e 11 29
e 11 34
e 11 35
e 12 13
e 12 27
e 12 28
e 12 29
e 12 34
e 13 22
e 13 26
e 13 29
e 13 30
e 13 31
e 13 33
e 13 34
e 13 36
e 14 15
e 14 20
e 14 34
e 14 36
e 15 19
e 15 23
e 15 36
e 15 37
e 16 18
e 16 24
e 16 25
e 16 27
e 16 30
e 16 35
e 17 23
e 17 25
e 17 26
e 17 35
e 18 24
e 18 27
e 18 30
e 18 35
e 19 21
e 19 23
e 19 37
e 20 22
e 20 34
e 21 24
e 21 29
e 21 32
e 22 26
e 22 30
e 22 31
e 22 33
e 22 36
e 23 25
e 23 26
e 23 37
e 24 27
e 24 29
e 24 30
e 24 32
e 24 35
e 25 26
e 26 30
e 26 31
e 26 33
e 26 36
e 27 28
e 27 30
e 27 35
e 28 32
e 28 33
e 28 37
e 29 32
e 29 34
e 30 31
e 30 33
e 30 35
e 30 36
e 31 33
e 31 36
e 32 33
e 32 37
e 33 36
e 33 37
